(declare-datatype Nat ((Z) (S (proj1-S Nat))))
(declare-datatype list ((nil) (cons (head Nat) (tail list))))
(define-fun-rec
  len
  ((x list)) Nat
  (match x
    ((nil Z)
     ((cons y xs) (S (len xs))))))
(define-fun-rec
  <=2
  ((x Nat) (y Nat)) Bool
  (match x
    ((Z true)
     ((S z)
      (match y
        ((Z false)
         ((S x2) (<=2 z x2))))))))
(define-fun-rec
  insort
  ((x Nat) (y list)) list
  (match y
    ((nil (cons x nil))
     ((cons z xs)
      (ite (<=2 x z) (cons x (cons z xs)) (cons z (insort x xs)))))))
(define-fun-rec
  sort
  ((x list)) list
  (match x
    ((nil nil)
     ((cons y xs) (insort y (sort xs))))))
(assert (not (forall ((xs list)) (= (len (sort xs)) (len xs)))))
(check-sat)
